eval/18-encs/equiv_enc_533.smt2
; PUSH cw_2 SHA3 PUSH 0x00 ADD DUP2 SWAP1 => DUP2 SWAP1 PUSH cw_2 SHA3
(set-option :produce-proofs true)
; 
(set-info :status unknown)
(declare-fun storage_t ((_ BitVec 256) (_ BitVec 256) (_ BitVec 256) (_ BitVec 256) Int (_ BitVec 256)) (_ BitVec 256))
(declare-fun w_2 () (_ BitVec 256))
(declare-fun storage_s ((_ BitVec 256) (_ BitVec 256) (_ BitVec 256) (_ BitVec 256) Int (_ BitVec 256)) (_ BitVec 256))
(declare-fun exc_halt_t (Int) Bool)
(declare-fun exc_halt_s (Int) Bool)
(declare-fun stack_t ((_ BitVec 256) (_ BitVec 256) (_ BitVec 256) (_ BitVec 256) Int (_ BitVec 6)) (_ BitVec 256))
(declare-fun stack_s ((_ BitVec 256) (_ BitVec 256) (_ BitVec 256) (_ BitVec 256) Int (_ BitVec 6)) (_ BitVec 256))
(declare-fun sc_t (Int) (_ BitVec 6))
(declare-fun sc_s (Int) (_ BitVec 6))
(declare-fun used_gas_t ((_ BitVec 256) (_ BitVec 256) (_ BitVec 256) (_ BitVec 256) Int) Int)
(declare-fun used_gas_s ((_ BitVec 256) (_ BitVec 256) (_ BitVec 256) (_ BitVec 256) Int) Int)
(declare-fun f_SHA3 ((_ BitVec 256) (_ BitVec 256) (_ BitVec 256) (_ BitVec 256) (_ BitVec 256) (_ BitVec 256)) (_ BitVec 256))
(assert
 (exists ((x_0 (_ BitVec 256)) (x_1 (_ BitVec 256)) (x_SHA3_0 (_ BitVec 256)) )(let (($x11244 (forall ((w (_ BitVec 256)) )(let ((?x5964 (storage_t x_0 x_1 w_2 x_SHA3_0 4 w)))
 (let ((?x4568 (storage_s x_0 x_1 w_2 x_SHA3_0 6 w)))
 (= ?x4568 ?x5964))))
 ))
 (let (($x7854 (exc_halt_t 4)))
 (let (($x772 (exc_halt_s 6)))
 (let (($x4404 (= $x772 $x7854)))
 (let (($x10748 (forall ((n (_ BitVec 6)) )(let ((?x9087 (stack_t x_0 x_1 w_2 x_SHA3_0 4 n)))
 (let ((?x4627 (stack_s x_0 x_1 w_2 x_SHA3_0 6 n)))
 (let (($x9707 (= ?x4627 ?x9087)))
 (let ((?x4818 (sc_t 4)))
 (let (($x8053 (bvsle ?x4818 n)))
 (or $x8053 $x9707)))))))
 ))
 (let ((?x4818 (sc_t 4)))
 (let ((?x926 (sc_s 6)))
 (let (($x7899 (= ?x926 ?x4818)))
 (let ((?x253 (used_gas_t x_0 x_1 w_2 x_SHA3_0 0)))
 (let ((?x4986 (used_gas_s x_0 x_1 w_2 x_SHA3_0 0)))
 (let (($x5019 (= ?x4986 ?x253)))
 (let (($x1832 (forall ((w (_ BitVec 256)) )(let ((?x7672 (storage_t x_0 x_1 w_2 x_SHA3_0 0 w)))
 (let ((?x6208 (storage_s x_0 x_1 w_2 x_SHA3_0 0 w)))
 (= ?x6208 ?x7672))))
 ))
 (let (($x56 (exc_halt_t 0)))
 (let (($x57 (exc_halt_s 0)))
 (let (($x58 (= $x57 $x56)))
 (let (($x1229 (forall ((n (_ BitVec 6)) )(let ((?x10492 (stack_t x_0 x_1 w_2 x_SHA3_0 0 n)))
 (let ((?x11518 (stack_s x_0 x_1 w_2 x_SHA3_0 0 n)))
 (let (($x4482 (= ?x11518 ?x10492)))
 (let ((?x63 (sc_t 0)))
 (let (($x1948 (bvsle ?x63 n)))
 (or $x1948 $x4482)))))))
 ))
 (let ((?x63 (sc_t 0)))
 (let ((?x72 (sc_s 0)))
 (let (($x73 (= ?x72 ?x63)))
 (let (($x665 (= $x7854 (or (exc_halt_t 3) (not (bvsle (_ bv0 6) (bvadd (_ bv62 6) (sc_t 3))))))))
 (let (($x5804 (forall ((w (_ BitVec 256)) )(let ((?x10100 (storage_t x_0 x_1 w_2 x_SHA3_0 3 w)))
 (let ((?x5964 (storage_t x_0 x_1 w_2 x_SHA3_0 4 w)))
 (= ?x5964 ?x10100))))
 ))
 (let (($x11777 (forall ((n (_ BitVec 6)) )(let ((?x5806 (stack_t x_0 x_1 w_2 x_SHA3_0 3 n)))
 (let ((?x9087 (stack_t x_0 x_1 w_2 x_SHA3_0 4 n)))
 (or (= ?x9087 ?x5806) (bvsle (bvadd (_ bv62 6) (sc_t 3)) n)))))
 ))
 (let (($x9218 (= (used_gas_t x_0 x_1 w_2 x_SHA3_0 4) (+ 30 (used_gas_t x_0 x_1 w_2 x_SHA3_0 3)))))
 (let ((?x5188 (f_SHA3 x_0 x_1 w_2 x_SHA3_0 (stack_t x_0 x_1 w_2 x_SHA3_0 3 (bvadd (_ bv63 6) (sc_t 3))) (stack_t x_0 x_1 w_2 x_SHA3_0 3 (bvadd (_ bv62 6) (sc_t 3))))))
 (let (($x9554 (not (= ((_ extract 6 6) (bvadd (_ bv1 7) (concat (_ bv0 1) (sc_t 2)))) (_ bv0 1)))))
 (let (($x2163 (exc_halt_t 2)))
 (let (($x6783 (exc_halt_t 3)))
 (let (($x7498 (= $x6783 (or $x2163 $x9554))))
 (let (($x4998 (forall ((w (_ BitVec 256)) )(let ((?x4267 (storage_t x_0 x_1 w_2 x_SHA3_0 2 w)))
 (let ((?x10100 (storage_t x_0 x_1 w_2 x_SHA3_0 3 w)))
 (= ?x10100 ?x4267))))
 ))
 (let (($x1959 (forall ((n (_ BitVec 6)) )(let ((?x2714 (sc_t 2)))
 (let (($x7874 (bvsle ?x2714 n)))
 (let ((?x4938 (stack_t x_0 x_1 w_2 x_SHA3_0 2 n)))
 (let ((?x5806 (stack_t x_0 x_1 w_2 x_SHA3_0 3 n)))
 (or (= ?x5806 ?x4938) $x7874))))))
 ))
 (let ((?x6438 (sc_t 3)))
 (let (($x10399 (= ?x6438 (bvadd (_ bv1 6) (sc_t 2)))))
 (let ((?x8755 (used_gas_t x_0 x_1 w_2 x_SHA3_0 3)))
 (let (($x10917 (= $x2163 (or (exc_halt_t 1) (not (bvsle (_ bv0 6) (bvadd (_ bv62 6) (sc_t 1))))))))
 (let (($x8494 (forall ((w (_ BitVec 256)) )(let ((?x2568 (storage_t x_0 x_1 w_2 x_SHA3_0 1 w)))
 (let ((?x4267 (storage_t x_0 x_1 w_2 x_SHA3_0 2 w)))
 (= ?x4267 ?x2568))))
 ))
 (let (($x10849 (forall ((n (_ BitVec 6)) )(let ((?x7154 (sc_t 1)))
 (let ((?x5451 (bvadd (_ bv62 6) ?x7154)))
 (let (($x8148 (bvsle ?x5451 n)))
 (let ((?x1926 (stack_t x_0 x_1 w_2 x_SHA3_0 1 n)))
 (let ((?x4938 (stack_t x_0 x_1 w_2 x_SHA3_0 2 n)))
 (or (= ?x4938 ?x1926) $x8148)))))))
 ))
 (let ((?x2064 (used_gas_t x_0 x_1 w_2 x_SHA3_0 2)))
 (let ((?x7154 (sc_t 1)))
 (let ((?x2146 (bvadd (_ bv63 6) ?x7154)))
 (let ((?x9731 (stack_t x_0 x_1 w_2 x_SHA3_0 1 ?x2146)))
 (let (($x711 (= (stack_t x_0 x_1 w_2 x_SHA3_0 2 (bvadd (_ bv62 6) (sc_t 2))) ?x9731)))
 (let (($x10408 (= (stack_t x_0 x_1 w_2 x_SHA3_0 2 (bvadd (_ bv63 6) (sc_t 2))) (stack_t x_0 x_1 w_2 x_SHA3_0 1 (bvadd (_ bv62 6) ?x7154)))))
 (let (($x10372 (not (= ((_ extract 6 6) (bvadd (_ bv1 7) (concat (_ bv0 1) ?x63))) (_ bv0 1)))))
 (let (($x7780 (not (bvsle (_ bv0 6) (bvadd (_ bv62 6) ?x63)))))
 (let (($x8377 (exc_halt_t 1)))
 (let (($x8089 (forall ((w (_ BitVec 256)) )(let ((?x7672 (storage_t x_0 x_1 w_2 x_SHA3_0 0 w)))
 (let ((?x2568 (storage_t x_0 x_1 w_2 x_SHA3_0 1 w)))
 (= ?x2568 ?x7672))))
 ))
 (let (($x7459 (forall ((n (_ BitVec 6)) )(let ((?x63 (sc_t 0)))
 (let ((?x3296 (bvadd (_ bv62 6) ?x63)))
 (let (($x9941 (bvsle ?x3296 n)))
 (let ((?x10492 (stack_t x_0 x_1 w_2 x_SHA3_0 0 n)))
 (let ((?x1926 (stack_t x_0 x_1 w_2 x_SHA3_0 1 n)))
 (or (= ?x1926 ?x10492) $x9941)))))))
 ))
 (let (($x10065 (= ?x7154 (bvadd (_ bv1 6) ?x63))))
 (let (($x11396 (= (stack_t x_0 x_1 w_2 x_SHA3_0 1 (bvadd (_ bv63 6) ?x63)) (stack_t x_0 x_1 w_2 x_SHA3_0 0 (bvadd (_ bv63 6) ?x63)))))
 (let ((?x3296 (bvadd (_ bv62 6) ?x63)))
 (let ((?x9615 (stack_t x_0 x_1 w_2 x_SHA3_0 0 ?x3296)))
 (let (($x5038 (= $x772 (or (exc_halt_s 5) (not (bvsle (_ bv0 6) (bvadd (_ bv62 6) (sc_s 5))))))))
 (let (($x10931 (forall ((w (_ BitVec 256)) )(let ((?x11394 (storage_s x_0 x_1 w_2 x_SHA3_0 5 w)))
 (let ((?x4568 (storage_s x_0 x_1 w_2 x_SHA3_0 6 w)))
 (= ?x4568 ?x11394))))
 ))
 (let (($x10370 (forall ((n (_ BitVec 6)) )(let ((?x1764 (stack_s x_0 x_1 w_2 x_SHA3_0 5 n)))
 (let ((?x4627 (stack_s x_0 x_1 w_2 x_SHA3_0 6 n)))
 (let ((?x4319 (sc_s 5)))
 (let ((?x10028 (bvadd (_ bv62 6) ?x4319)))
 (let (($x1648 (bvsle ?x10028 n)))
 (or $x1648 (= ?x4627 ?x1764))))))))
 ))
 (let ((?x4319 (sc_s 5)))
 (let (($x9052 (= ?x926 ?x4319)))
 (let (($x1989 (= (used_gas_s x_0 x_1 w_2 x_SHA3_0 6) (+ 3 (used_gas_s x_0 x_1 w_2 x_SHA3_0 5)))))
 (let ((?x4217 (bvadd (_ bv63 6) ?x4319)))
 (let ((?x6038 (stack_s x_0 x_1 w_2 x_SHA3_0 5 ?x4217)))
 (let (($x3087 (= (stack_s x_0 x_1 w_2 x_SHA3_0 6 (bvadd (_ bv63 6) ?x926)) (stack_s x_0 x_1 w_2 x_SHA3_0 5 (bvadd (_ bv62 6) ?x4319)))))
 (let (($x7172 (exc_halt_s 4)))
 (let (($x4340 (not (= ((_ extract 6 6) (bvadd (_ bv1 7) (concat (_ bv0 1) (sc_s 4)))) (_ bv0 1)))))
 (let (($x2483 (not (bvsle (_ bv0 6) (bvadd (_ bv62 6) (sc_s 4))))))
 (let (($x11317 (exc_halt_s 5)))
 (let (($x11642 (forall ((w (_ BitVec 256)) )(let ((?x11285 (storage_s x_0 x_1 w_2 x_SHA3_0 4 w)))
 (let ((?x11394 (storage_s x_0 x_1 w_2 x_SHA3_0 5 w)))
 (= ?x11394 ?x11285))))
 ))
 (let (($x1961 (forall ((n (_ BitVec 6)) )(let ((?x4305 (sc_s 4)))
 (let ((?x2417 (bvadd (_ bv62 6) ?x4305)))
 (let (($x11349 (bvsle ?x2417 n)))
 (let ((?x3933 (stack_s x_0 x_1 w_2 x_SHA3_0 4 n)))
 (let ((?x1764 (stack_s x_0 x_1 w_2 x_SHA3_0 5 n)))
 (or (= ?x1764 ?x3933) $x11349)))))))
 ))
 (let (($x7619 (= ?x4319 (bvadd (_ bv1 6) (sc_s 4)))))
 (let ((?x11652 (used_gas_s x_0 x_1 w_2 x_SHA3_0 5)))
 (let ((?x4305 (sc_s 4)))
 (let ((?x6098 (bvadd (_ bv63 6) ?x4305)))
 (let ((?x5762 (stack_s x_0 x_1 w_2 x_SHA3_0 4 ?x6098)))
 (let ((?x2417 (bvadd (_ bv62 6) ?x4305)))
 (let ((?x1424 (stack_s x_0 x_1 w_2 x_SHA3_0 4 ?x2417)))
 (let (($x9358 (= $x7172 (or (exc_halt_s 3) (not (bvsle (_ bv0 6) (bvadd (_ bv62 6) (sc_s 3))))))))
 (let (($x7402 (forall ((w (_ BitVec 256)) )(let ((?x8608 (storage_s x_0 x_1 w_2 x_SHA3_0 3 w)))
 (let ((?x11285 (storage_s x_0 x_1 w_2 x_SHA3_0 4 w)))
 (= ?x11285 ?x8608))))
 ))
 (let (($x175 (forall ((n (_ BitVec 6)) )(let ((?x3759 (stack_s x_0 x_1 w_2 x_SHA3_0 3 n)))
 (let ((?x3933 (stack_s x_0 x_1 w_2 x_SHA3_0 4 n)))
 (let ((?x275 (sc_s 3)))
 (let ((?x2606 (bvadd (_ bv62 6) ?x275)))
 (let (($x4179 (bvsle ?x2606 n)))
 (or $x4179 (= ?x3933 ?x3759))))))))
 ))
 (let ((?x275 (sc_s 3)))
 (let ((?x6630 (bvadd (_ bv63 6) ?x275)))
 (let (($x10529 (= ?x4305 ?x6630)))
 (let ((?x6026 (used_gas_s x_0 x_1 w_2 x_SHA3_0 4)))
 (let ((?x2919 (bvadd (stack_s x_0 x_1 w_2 x_SHA3_0 3 ?x6630) (stack_s x_0 x_1 w_2 x_SHA3_0 3 (bvadd (_ bv62 6) ?x275)))))
 (let (($x11463 (not (= ((_ extract 6 6) (bvadd (_ bv1 7) (concat (_ bv0 1) (sc_s 2)))) (_ bv0 1)))))
 (let (($x247 (exc_halt_s 2)))
 (let (($x292 (exc_halt_s 3)))
 (let (($x3053 (= $x292 (or $x247 $x11463))))
 (let (($x7500 (forall ((w (_ BitVec 256)) )(let ((?x10348 (storage_s x_0 x_1 w_2 x_SHA3_0 2 w)))
 (let ((?x8608 (storage_s x_0 x_1 w_2 x_SHA3_0 3 w)))
 (= ?x8608 ?x10348))))
 ))
 (let (($x11848 (forall ((n (_ BitVec 6)) )(let ((?x7848 (stack_s x_0 x_1 w_2 x_SHA3_0 2 n)))
 (let ((?x3759 (stack_s x_0 x_1 w_2 x_SHA3_0 3 n)))
 (let ((?x218 (sc_s 2)))
 (let (($x1619 (bvsle ?x218 n)))
 (or $x1619 (= ?x3759 ?x7848)))))))
 ))
 (let (($x5593 (= ?x275 (bvadd (_ bv1 6) (sc_s 2)))))
 (let ((?x8337 (used_gas_s x_0 x_1 w_2 x_SHA3_0 3)))
 (let (($x1964 (= $x247 (or (exc_halt_s 1) (not (bvsle (_ bv0 6) (bvadd (_ bv62 6) (sc_s 1))))))))
 (let (($x9313 (forall ((w (_ BitVec 256)) )(let ((?x379 (storage_s x_0 x_1 w_2 x_SHA3_0 1 w)))
 (let ((?x10348 (storage_s x_0 x_1 w_2 x_SHA3_0 2 w)))
 (= ?x10348 ?x379))))
 ))
 (let (($x7270 (forall ((n (_ BitVec 6)) )(let ((?x2169 (stack_s x_0 x_1 w_2 x_SHA3_0 1 n)))
 (let ((?x7848 (stack_s x_0 x_1 w_2 x_SHA3_0 2 n)))
 (let ((?x154 (sc_s 1)))
 (let ((?x5699 (bvadd (_ bv62 6) ?x154)))
 (let (($x1237 (bvsle ?x5699 n)))
 (or $x1237 (= ?x7848 ?x2169))))))))
 ))
 (let ((?x11758 (used_gas_s x_0 x_1 w_2 x_SHA3_0 2)))
 (let ((?x1636 (f_SHA3 x_0 x_1 w_2 x_SHA3_0 (stack_s x_0 x_1 w_2 x_SHA3_0 1 (bvadd (_ bv63 6) (sc_s 1))) (stack_s x_0 x_1 w_2 x_SHA3_0 1 (bvadd (_ bv62 6) (sc_s 1))))))
 (let (($x3149 (= (stack_s x_0 x_1 w_2 x_SHA3_0 2 (bvadd (_ bv63 6) (sc_s 2))) ?x1636)))
 (let (($x189 (exc_halt_s 1)))
 (let (($x2601 (= $x189 (or $x57 (not (= ((_ extract 6 6) (bvadd (_ bv1 7) (concat (_ bv0 1) ?x72))) (_ bv0 1)))))))
 (let (($x4715 (forall ((w (_ BitVec 256)) )(let ((?x6208 (storage_s x_0 x_1 w_2 x_SHA3_0 0 w)))
 (let ((?x379 (storage_s x_0 x_1 w_2 x_SHA3_0 1 w)))
 (= ?x379 ?x6208))))
 ))
 (let (($x3272 (forall ((n (_ BitVec 6)) )(let ((?x72 (sc_s 0)))
 (let (($x6679 (bvsle ?x72 n)))
 (let ((?x11518 (stack_s x_0 x_1 w_2 x_SHA3_0 0 n)))
 (let ((?x2169 (stack_s x_0 x_1 w_2 x_SHA3_0 1 n)))
 (or (= ?x2169 ?x11518) $x6679))))))
 ))
 (let ((?x154 (sc_s 1)))
 (let (($x5696 (= ?x154 (bvadd (_ bv1 6) ?x72))))
 (let (($x8080 (forall ((w0 (_ BitVec 256)) (w1 (_ BitVec 256)) )(let (($x11815 (= (stack_s x_0 x_1 w_2 x_SHA3_0 1 (bvadd (_ bv62 6) (sc_s 1))) w1)))
 (let (($x2047 (= (stack_s x_0 x_1 w_2 x_SHA3_0 1 (bvadd (_ bv63 6) (sc_s 1))) w0)))
 (let ((?x9274 (f_SHA3 x_0 x_1 w_2 x_SHA3_0 w0 w1)))
 (= ?x9274 (ite (and $x2047 $x11815) x_SHA3_0 (_ bv0 256)))))))
 ))
 (let (($x9006 (forall ((w (_ BitVec 256)) )(let ((?x6208 (storage_s x_0 x_1 w_2 x_SHA3_0 0 w)))
 (= ?x6208 (_ bv0 256))))
 ))
 (let (($x226 (= ?x4986 0)))
 (let (($x7631 (not $x57)))
 (let (($x3784 (= (stack_s x_0 x_1 w_2 x_SHA3_0 0 (_ bv1 6)) x_1)))
 (let (($x480 (= (stack_s x_0 x_1 w_2 x_SHA3_0 0 (_ bv0 6)) x_0)))
 (let (($x11128 (= ?x72 (_ bv2 6))))
 (and $x11128 $x480 $x3784 $x7631 $x226 $x9006 $x8080 (= (stack_s x_0 x_1 w_2 x_SHA3_0 1 ?x72) w_2) (= (used_gas_s x_0 x_1 w_2 x_SHA3_0 1) (+ 3 ?x4986)) $x5696 $x3272 $x4715 $x2601 $x3149 (= ?x11758 (+ 30 (used_gas_s x_0 x_1 w_2 x_SHA3_0 1))) (= (sc_s 2) (bvadd (_ bv63 6) ?x154)) $x7270 $x9313 $x1964 (= (stack_s x_0 x_1 w_2 x_SHA3_0 3 (sc_s 2)) (_ bv0 256)) (= ?x8337 (+ 3 ?x11758)) $x5593 $x11848 $x7500 $x3053 (= ?x5762 ?x2919) (= ?x6026 (+ 3 ?x8337)) $x10529 $x175 $x7402 $x9358 (= ?x6038 ?x1424) (= (stack_s x_0 x_1 w_2 x_SHA3_0 5 ?x2417) ?x1424) (= (stack_s x_0 x_1 w_2 x_SHA3_0 5 ?x6098) ?x5762) (= ?x11652 (+ 3 ?x6026)) $x7619 $x1961 $x11642 (= $x11317 (or $x2483 $x4340 $x7172)) $x3087 (= (stack_s x_0 x_1 w_2 x_SHA3_0 6 (bvadd (_ bv62 6) ?x926)) ?x6038) $x1989 $x9052 $x10370 $x10931 $x5038 (= ?x9731 ?x9615) (= (stack_t x_0 x_1 w_2 x_SHA3_0 1 ?x3296) ?x9615) $x11396 (= (used_gas_t x_0 x_1 w_2 x_SHA3_0 1) (+ 3 ?x253)) $x10065 $x7459 $x8089 (= $x8377 (or $x56 $x7780 $x10372)) $x10408 $x711 (= ?x2064 (+ 3 (used_gas_t x_0 x_1 w_2 x_SHA3_0 1))) (= (sc_t 2) ?x7154) $x10849 $x8494 $x10917 (= (stack_t x_0 x_1 w_2 x_SHA3_0 3 (sc_t 2)) w_2) (= ?x8755 (+ 3 ?x2064)) $x10399 $x1959 $x4998 $x7498 (= (stack_t x_0 x_1 w_2 x_SHA3_0 4 (bvadd (_ bv63 6) ?x4818)) ?x5188) $x9218 (= ?x4818 (bvadd (_ bv63 6) ?x6438)) $x11777 $x5804 $x665 $x73 $x1229 $x58 $x1832 $x5019 (not (and $x7899 $x10748 $x4404 $x11244))))))))))))))))))))))))))))))))))))))))))))))))))))))))))))))))))))))))))))))))))))))))))))))))))))))))))))))))
 )
(check-sat)
(get-proof)
